sat
(:elim-unconstrained      14
 :max-memory              229.00
 :memory                  57.86
 :num-allocs              10455901260.00
 :rlimit-count            28093913
 :sat-backjumps           36411
 :sat-backtracks          591
 :sat-conflicts           37002
 :sat-decisions           113619
 :sat-del-clause          448429
 :sat-elim-bool-vars-res  81169
 :sat-elim-clauses        1265
 :sat-elim-literals       9518
 :sat-gc-clause           9680
 :sat-minimized-lits      465713
 :sat-mk-clause-2ary      243698
 :sat-mk-clause-3ary      121223
 :sat-mk-clause-nary      714910
 :sat-mk-var              165257
 :sat-probing-assigned    33
 :sat-propagations-2ary   9656395
 :sat-propagations-nary   16068314
 :sat-restarts            4415
 :sat-scc-elim-binary     1828
 :sat-scc-elim-vars       219
 :sat-subs-resolution     7907
 :sat-subs-resolution-dyn 18500
 :sat-subsumed            95378
 :sat-units               80
 :time                    9.98
 :total-time              10.00)
